(set-info :smt-lib-version 2.7)
(set-logic QF_NIA)
(set-info :source  | 
Generated by: Johannes Bauer
Generated on: 2026-06-18
Generator: mgm A12 Test Data Generator
Application: ELSTER
Target solver: Z3, Yices2, CVC5
Script is based on the ELSTER form: capital gains tax registration (A / KapEStInvStG)
Characteristic of the form: easy.
In this script, all terms of the form (* x1 x2 x3 ...) are in the form (* x1 c2 c3 ...),
all terms of the form (div x y) are in the form (div x c) and the symbol mod is exclusively used in the form (mod x c),
where x, y, and x1, x2, x3 ... are free constants and c, c2, c3 ... are terms in the form n or (-n) for some numeral n.
The script starts with the base constraints, which define a valid data set for the corresponding form. After the first (push 1), control constraints follow.
The goal of the control constraints in this script is to fill up a data set with values, after the characteristics of the high test coverage were placed.
number variables: 123, number constraints: 155
"https://www.elster.de/eportal/start?locale=en_US"
"https://www.mgm-tp.com/q12-tdg.html"
"https://a12.ai/public-sector"
|)
(set-info :license "https://creativecommons.org/licenses/by/4.0/")
(set-info :category "industrial")
(set-info :major-phase |variable declarations|)
(declare-fun I1-i () Int)
(declare-fun I2-N () Int)
(declare-fun B3-F () Bool)
(declare-fun I3-i () Int)
(declare-fun B4-F () Bool)
(declare-fun B5-F () Bool)
(declare-fun B6-F () Bool)
(declare-fun I6-y () Int)
(declare-fun B7-F () Bool)
(declare-fun I7-N () Int)
(declare-fun B8-F () Bool)
(declare-fun I9-N () Int)
(declare-fun I10-y () Int)
(declare-fun I10-m () Int)
(declare-fun I10-d () Int)
(declare-fun I11-y () Int)
(declare-fun I11-m () Int)
(declare-fun I11-d () Int)
(declare-fun I12 () Int)
(declare-fun I13-s-y () Int)
(declare-fun I13-s-m () Int)
(declare-fun I13-s-d () Int)
(declare-fun I13-e-y () Int)
(declare-fun I13-e-m () Int)
(declare-fun I13-e-d () Int)
(declare-fun I14-y () Int)
(declare-fun I14-m () Int)
(declare-fun I14-d () Int)
(declare-fun I15-y () Int)
(declare-fun I15-m () Int)
(declare-fun I15-d () Int)
(declare-fun I16 () Int)
(declare-fun I17 () Int)
(declare-fun I18 () Int)
(declare-fun I19-s-y () Int)
(declare-fun I19-s-m () Int)
(declare-fun I19-s-d () Int)
(declare-fun I19-e-y () Int)
(declare-fun I19-e-m () Int)
(declare-fun I19-e-d () Int)
(declare-fun I20-y () Int)
(declare-fun I20-m () Int)
(declare-fun I20-d () Int)
(declare-fun I21-y () Int)
(declare-fun I21-m () Int)
(declare-fun I21-d () Int)
(declare-fun I22 () Int)
(declare-fun I23 () Int)
(declare-fun I24 () Int)
(declare-fun I25 () Int)
(declare-fun I26 () Int)
(declare-fun I27 () Int)
(declare-fun I28-N () Int)
(declare-fun I29-y () Int)
(declare-fun I29-m () Int)
(declare-fun I29-d () Int)
(declare-fun I30-y () Int)
(declare-fun I30-m () Int)
(declare-fun I30-d () Int)
(declare-fun I31-y () Int)
(declare-fun I31-m () Int)
(declare-fun I31-d () Int)
(declare-fun I32 () Int)
(declare-fun I33 () Int)
(declare-fun I34 () Int)
(declare-fun I35-y () Int)
(declare-fun I35-m () Int)
(declare-fun I35-d () Int)
(declare-fun I36 () Int)
(declare-fun I37 () Int)
(declare-fun I38 () Int)
(declare-fun I39 () Int)
(declare-fun I40 () Int)
(declare-fun I41 () Int)
(declare-fun B42-F () Bool)
(declare-fun B43-F () Bool)
(declare-fun I43 () Int)
(declare-fun B44-F () Bool)
(declare-fun I44 () Int)
(declare-fun B45-F () Bool)
(declare-fun I45 () Int)
(declare-fun I46 () Int)
(declare-fun I47 () Int)
(declare-fun B48-F () Bool)
(declare-fun I48-y () Int)
(declare-fun I48-m () Int)
(declare-fun I48-d () Int)
(declare-fun B49-F () Bool)
(declare-fun B50-F () Bool)
(declare-fun I50 () Int)
(declare-fun B51-F () Bool)
(declare-fun I51 () Int)
(declare-fun B52-F () Bool)
(declare-fun I52 () Int)
(declare-fun B53-F () Bool)
(declare-fun B54-F () Bool)
(declare-fun I54 () Int)
(declare-fun B55-F () Bool)
(declare-fun I55 () Int)
(declare-fun B56-F () Bool)
(declare-fun B57-F () Bool)
(declare-fun B58-F () Bool)
(declare-fun I58 () Int)
(declare-fun B59-F () Bool)
(declare-fun I59 () Int)
(declare-fun B60-F () Bool)
(declare-fun I60 () Int)
(declare-fun B61-F () Bool)
(declare-fun I61 () Int)
(declare-fun B62-F () Bool)
(declare-fun I62 () Int)
(declare-fun B63-F () Bool)
(declare-fun I63 () Int)
(declare-fun B64-F () Bool)
(declare-fun B65-F () Bool)
(declare-fun I65 () Int)
(declare-fun I66 () Int)
(declare-fun B67-F () Bool)
(declare-fun B68-F () Bool)
(declare-fun B69-F () Bool)
(declare-fun B70-F () Bool)
(declare-fun B71-F () Bool)
(declare-fun B72-F () Bool)
(set-info :major-phase |base constraints|)
(set-info :base-constraint-type ||)
(assert (distinct I12 0))
(assert (<= (ite (>= (- 1 (div (* I12 55) 10)) 0) (- 1 (div (* I12 55) 10)) (- (- 1 (div (* I12 55) 10)))) 100))
(assert (and (>= I30-y (ite B6-F I6-y 0)) (distinct I30-y (ite B6-F I6-y 0)) (< I30-m I7-N)))
(assert (and (>= I13-s-y (- I13-e-y 1)) (or (distinct I13-s-y (- I13-e-y 1)) (>= I13-s-m I13-e-m)) (distinct I13-s-y (- I13-e-y 1)) (= I13-s-m I13-e-m) (< I13-s-d (+ I13-e-d 1))))
(assert (and (>= I19-s-y (- I19-e-y 1)) (or (distinct I19-s-y (- I19-e-y 1)) (>= I19-s-m I19-e-m)) (distinct I19-s-y (- I19-e-y 1)) (= I19-s-m I19-e-m) (< I19-s-d (+ I19-e-d 1))))
(set-info :base-constraint-type |constraints defining hierarchy (group is filled, if a child is filled)|)
(assert (not (or B48-F B49-F)))
(assert (= B49-F (or B50-F B51-F)))
(assert (= B67-F (or B68-F B69-F)))
(assert (= B42-F (or B43-F B44-F B45-F)))
(assert (or B52-F B53-F B54-F B55-F B56-F B57-F B58-F B59-F B60-F B61-F B62-F B63-F B64-F B65-F))
(set-info :base-constraint-type |domainconstraints number-fields|)
(assert (ite B50-F (and (<= I50 999999999999) (>= I50 0)) (= I50 0)))
(assert (ite B51-F (and (<= I51 999999999999) (>= I51 0)) (= I51 0)))
(assert (and (<= I46 999999999999) (>= I46 (- 999999999999))))
(assert (and (<= I47 99999999999999) (>= I47 (- 99999999999999))))
(assert (and (<= I12 999999999999) (>= I12 (- 999999999999))))
(assert (and (<= I32 999999999999) (>= I32 (- 999999999999))))
(assert (and (<= I33 999999999999) (>= I33 (- 999999999999))))
(assert (and (<= I34 99999999999999) (>= I34 (- 99999999999999))))
(assert (and (<= I36 999999999999) (>= I36 0)))
(assert (and (<= I37 999999999999) (>= I37 0)))
(assert (and (<= I38 99999999999999) (>= I38 0)))
(assert (and (<= I39 999999999999) (>= I39 0)))
(assert (and (<= I40 999999999999) (>= I40 0)))
(assert (and (<= I41 99999999999999) (>= I41 0)))
(assert (ite B43-F (and (<= I43 999999999999) (>= I43 (- 999999999999))) (= I43 0)))
(assert (ite B44-F (and (<= I44 999999999999) (>= I44 (- 999999999999))) (= I44 0)))
(assert (ite B45-F (and (<= I45 99999999999999) (>= I45 (- 99999999999999))) (= I45 0)))
(assert (and (<= I16 999999999999) (>= I16 (- 999999999999))))
(assert (and (<= I17 99999999999999) (>= I17 (- 99999999999999))))
(assert (and (<= I18 999999999999) (>= I18 (- 999999999999))))
(assert (and (<= I22 999999999999) (>= I22 (- 999999999999))))
(assert (and (<= I23 999999999999) (>= I23 (- 999999999999))))
(assert (and (<= I24 99999999999999) (>= I24 (- 99999999999999))))
(assert (and (<= I25 99999999999999) (>= I25 (- 99999999999999))))
(assert (and (<= I26 999999999999) (>= I26 (- 999999999999))))
(assert (and (<= I27 99999999999999) (>= I27 (- 99999999999999))))
(assert (ite B55-F (and (<= I55 99999999999999) (>= I55 (- 9999999999999))) (= I55 0)))
(assert (ite B54-F (and (<= I54 99999999999999) (>= I54 (- 9999999999999))) (= I54 0)))
(assert (ite B52-F (and (<= I52 99999999999999) (>= I52 (- 9999999999999))) (= I52 0)))
(assert (ite B53-F true false))
(assert (ite B57-F true false))
(assert (ite B56-F true false))
(assert (ite B58-F (and (<= I58 99999999999999) (>= I58 (- 9999999999999))) (= I58 0)))
(assert (ite B59-F (and (<= I59 99999999999999) (>= I59 (- 9999999999999))) (= I59 0)))
(assert (ite B60-F (and (<= I60 99999999999999) (>= I60 (- 9999999999999))) (= I60 0)))
(assert (ite B61-F (and (<= I61 99999999999999) (>= I61 (- 9999999999999))) (= I61 0)))
(assert (ite B62-F (and (<= I62 99999999999999) (>= I62 (- 9999999999999))) (= I62 0)))
(assert (ite B63-F (and (<= I63 99999999999999) (>= I63 (- 9999999999999))) (= I63 0)))
(assert (ite B64-F true false))
(assert (ite B65-F (and (<= I65 99999999999999) (>= I65 (- 9999999999999))) (= I65 0)))
(assert (and (<= I66 99999999999999) (>= I66 (- 9999999999999))))
(set-info :base-constraint-type |domainconstraints date-fields|)
(assert (and (ite B48-F (and (> I48-y 1900) (< I48-y 2100)) (= I48-y 0)) (ite B48-F (and (> I48-m 0) (<= I48-m 12)) (= I48-m 0)) (ite B48-F (and (> I48-d 0) (<= I48-d (ite (or (= I48-m 0) (= I48-m 1) (= I48-m 3) (= I48-m 5) (= I48-m 7) (= I48-m 8) (= I48-m 10) (= I48-m 12)) 31 (ite (or (= I48-m 4) (= I48-m 6) (= I48-m 9) (= I48-m 11)) 30 (ite (= (mod I48-y 4) 0) 29 28))))) (= I48-d 0))))
(assert (ite B6-F (and (> I6-y 1900) (< I6-y 2100)) (= I6-y 0)))
(assert (and (> I11-y 1900) (< I11-y 2100) (> I11-m 0) (<= I11-m 12) (> I11-d 0) (<= I11-d (ite (or (= I11-m 0) (= I11-m 1) (= I11-m 3) (= I11-m 5) (= I11-m 7) (= I11-m 8) (= I11-m 10) (= I11-m 12)) 31 (ite (or (= I11-m 4) (= I11-m 6) (= I11-m 9) (= I11-m 11)) 30 (ite (= (mod I11-y 4) 0) 29 28))))))
(assert (and (> I10-y 1900) (< I10-y 2100) (> I10-m 0) (<= I10-m 12) (> I10-d 0) (<= I10-d (ite (or (= I10-m 0) (= I10-m 1) (= I10-m 3) (= I10-m 5) (= I10-m 7) (= I10-m 8) (= I10-m 10) (= I10-m 12)) 31 (ite (or (= I10-m 4) (= I10-m 6) (= I10-m 9) (= I10-m 11)) 30 (ite (= (mod I10-y 4) 0) 29 28))))))
(assert (and (> I30-y 1900) (< I30-y 2100) (> I30-m 0) (<= I30-m 12) (> I30-d 0) (<= I30-d (ite (or (= I30-m 0) (= I30-m 1) (= I30-m 3) (= I30-m 5) (= I30-m 7) (= I30-m 8) (= I30-m 10) (= I30-m 12)) 31 (ite (or (= I30-m 4) (= I30-m 6) (= I30-m 9) (= I30-m 11)) 30 (ite (= (mod I30-y 4) 0) 29 28))))))
(assert (and (> I29-y 1900) (< I29-y 2100) (> I29-m 0) (<= I29-m 12) (> I29-d 0) (<= I29-d (ite (or (= I29-m 0) (= I29-m 1) (= I29-m 3) (= I29-m 5) (= I29-m 7) (= I29-m 8) (= I29-m 10) (= I29-m 12)) 31 (ite (or (= I29-m 4) (= I29-m 6) (= I29-m 9) (= I29-m 11)) 30 (ite (= (mod I29-y 4) 0) 29 28))))))
(assert (and (> I31-y 1900) (< I31-y 2100) (> I31-m 0) (<= I31-m 12) (> I31-d 0) (<= I31-d (ite (or (= I31-m 0) (= I31-m 1) (= I31-m 3) (= I31-m 5) (= I31-m 7) (= I31-m 8) (= I31-m 10) (= I31-m 12)) 31 (ite (or (= I31-m 4) (= I31-m 6) (= I31-m 9) (= I31-m 11)) 30 (ite (= (mod I31-y 4) 0) 29 28))))))
(assert (and (> I35-y 1900) (< I35-y 2100) (> I35-m 0) (<= I35-m 12) (> I35-d 0) (<= I35-d (ite (or (= I35-m 0) (= I35-m 1) (= I35-m 3) (= I35-m 5) (= I35-m 7) (= I35-m 8) (= I35-m 10) (= I35-m 12)) 31 (ite (or (= I35-m 4) (= I35-m 6) (= I35-m 9) (= I35-m 11)) 30 (ite (= (mod I35-y 4) 0) 29 28))))))
(assert (and (> I15-y 1900) (< I15-y 2100) (> I15-m 0) (<= I15-m 12) (> I15-d 0) (<= I15-d (ite (or (= I15-m 0) (= I15-m 1) (= I15-m 3) (= I15-m 5) (= I15-m 7) (= I15-m 8) (= I15-m 10) (= I15-m 12)) 31 (ite (or (= I15-m 4) (= I15-m 6) (= I15-m 9) (= I15-m 11)) 30 (ite (= (mod I15-y 4) 0) 29 28))))))
(assert (and (> I14-y 1900) (< I14-y 2100) (> I14-m 0) (<= I14-m 12) (> I14-d 0) (<= I14-d (ite (or (= I14-m 0) (= I14-m 1) (= I14-m 3) (= I14-m 5) (= I14-m 7) (= I14-m 8) (= I14-m 10) (= I14-m 12)) 31 (ite (or (= I14-m 4) (= I14-m 6) (= I14-m 9) (= I14-m 11)) 30 (ite (= (mod I14-y 4) 0) 29 28))))))
(assert (or (< I13-s-y I13-e-y) (and (= I13-s-y I13-e-y) (< I13-s-m I13-e-m)) (and (= I13-s-y I13-e-y) (= I13-s-m I13-e-m) (<= I13-s-d I13-e-d))))
(assert (and (>= I13-e-d 1) (<= I13-e-d (ite (or (= I13-e-m 0) (= I13-e-m 1) (= I13-e-m 3) (= I13-e-m 5) (= I13-e-m 7) (= I13-e-m 8) (= I13-e-m 10) (= I13-e-m 12)) 31 (ite (or (= I13-e-m 4) (= I13-e-m 6) (= I13-e-m 9) (= I13-e-m 11)) 30 (ite (= (mod I13-e-y 4) 0) 29 28))))))
(assert (and (>= I13-e-m 1) (<= I13-e-m 12)))
(assert (and (>= I13-e-y 1901) (<= I13-e-y 2099)))
(assert (and (>= I13-s-d 1) (<= I13-s-d (ite (or (= I13-s-m 0) (= I13-s-m 1) (= I13-s-m 3) (= I13-s-m 5) (= I13-s-m 7) (= I13-s-m 8) (= I13-s-m 10) (= I13-s-m 12)) 31 (ite (or (= I13-s-m 4) (= I13-s-m 6) (= I13-s-m 9) (= I13-s-m 11)) 30 (ite (= (mod I13-s-y 4) 0) 29 28))))))
(assert (and (>= I13-s-m 1) (<= I13-s-m 12)))
(assert (and (>= I13-s-y 1901) (<= I13-s-y 2099)))
(assert (and (> I21-y 1900) (< I21-y 2100) (> I21-m 0) (<= I21-m 12) (> I21-d 0) (<= I21-d (ite (or (= I21-m 0) (= I21-m 1) (= I21-m 3) (= I21-m 5) (= I21-m 7) (= I21-m 8) (= I21-m 10) (= I21-m 12)) 31 (ite (or (= I21-m 4) (= I21-m 6) (= I21-m 9) (= I21-m 11)) 30 (ite (= (mod I21-y 4) 0) 29 28))))))
(assert (and (> I20-y 1900) (< I20-y 2100) (> I20-m 0) (<= I20-m 12) (> I20-d 0) (<= I20-d (ite (or (= I20-m 0) (= I20-m 1) (= I20-m 3) (= I20-m 5) (= I20-m 7) (= I20-m 8) (= I20-m 10) (= I20-m 12)) 31 (ite (or (= I20-m 4) (= I20-m 6) (= I20-m 9) (= I20-m 11)) 30 (ite (= (mod I20-y 4) 0) 29 28))))))
(assert (or (< I19-s-y I19-e-y) (and (= I19-s-y I19-e-y) (< I19-s-m I19-e-m)) (and (= I19-s-y I19-e-y) (= I19-s-m I19-e-m) (<= I19-s-d I19-e-d))))
(assert (and (>= I19-e-d 1) (<= I19-e-d (ite (or (= I19-e-m 0) (= I19-e-m 1) (= I19-e-m 3) (= I19-e-m 5) (= I19-e-m 7) (= I19-e-m 8) (= I19-e-m 10) (= I19-e-m 12)) 31 (ite (or (= I19-e-m 4) (= I19-e-m 6) (= I19-e-m 9) (= I19-e-m 11)) 30 (ite (= (mod I19-e-y 4) 0) 29 28))))))
(assert (and (>= I19-e-m 1) (<= I19-e-m 12)))
(assert (and (>= I19-e-y 1901) (<= I19-e-y 2099)))
(assert (and (>= I19-s-d 1) (<= I19-s-d (ite (or (= I19-s-m 0) (= I19-s-m 1) (= I19-s-m 3) (= I19-s-m 5) (= I19-s-m 7) (= I19-s-m 8) (= I19-s-m 10) (= I19-s-m 12)) 31 (ite (or (= I19-s-m 4) (= I19-s-m 6) (= I19-s-m 9) (= I19-s-m 11)) 30 (ite (= (mod I19-s-y 4) 0) 29 28))))))
(assert (and (>= I19-s-m 1) (<= I19-s-m 12)))
(assert (and (>= I19-s-y 1901) (<= I19-s-y 2099)))
(set-info :base-constraint-type |constraints for date-strategy|)
(assert (and (> I9-N 1900) (< I9-N 2100)))
(assert (and (> I9-N 1900) (< I9-N 2100)))
(set-info :base-constraint-type |domainconstraints string fields|)
(assert (and (>= I9-N 0) (<= I9-N 9999)))
(assert (and (>= I28-N 0) (<= I28-N 9999)))
(set-info :base-constraint-type |domainconstraints index-based string fields|)
(assert (or (= I2-N 0) (= I2-N 1)))
(assert (ite B7-F (or (= I7-N 1) (= I7-N 2) (= I7-N 3) (= I7-N 4) (= I7-N 5) (= I7-N 6) (= I7-N 7) (= I7-N 8) (= I7-N 9) (= I7-N 10) (= I7-N 11) (= I7-N 12)) (= I7-N 0)))
(assert (or (= I1-i 1) (= I1-i 2) (= I1-i 3) (= I1-i 4) (= I1-i 5) (= I1-i 6) (= I1-i 7) (= I1-i 8) (= I1-i 9) (= I1-i 10) (= I1-i 11) (= I1-i 12) (= I1-i 13) (= I1-i 14) (= I1-i 15)))
(assert (ite B3-F (or (= I3-i 1) (= I3-i 2) (= I3-i 3) (= I3-i 4) (= I3-i 5) (= I3-i 6) (= I3-i 7) (= I3-i 8) (= I3-i 9) (= I3-i 10) (= I3-i 11) (= I3-i 12) (= I3-i 13) (= I3-i 14) (= I3-i 15)) (= I3-i 0)))
(set-info :base-constraint-type |constraints from validation-rules|)
(assert (not (and B51-F B50-F (distinct I50 0) (distinct I51 (div (* I50 15) 100)))))
(assert (not (and B48-F (or (< I48-y 2025) (> I48-y 2025)))))
(assert (not (and (or B69-F B68-F) (not (and B69-F B68-F)))))
(assert (not (distinct I46 (+ I12 I16 I18 I23 I26 I33 I37 I40 I44 (- 999999999998)))))
(assert (not (distinct I47 (+ I17 I24 I25 I27 I34 I38 I41 I45 (- 844)))))
(assert (not (and B6-F (or (< I6-y 2025) (> I6-y 2025)))))
(assert (not (or (> I11-y I10-y) (and (= I11-y I10-y) (> I11-m I10-m)) (and (= I11-y I10-y) (= I11-m I10-m) (> I11-d I10-d)))))
(assert (not (or (distinct I10-y (ite B6-F I6-y 0)) (distinct I10-m I7-N))))
(assert (not (>= (ite (and (>= I9-N 1) (<= I9-N 9999)) (+ (- I11-y I9-N) (ite (or (< I9-N I11-y) (and (= I9-N I11-y) (< 5 I11-m)) (and (= I9-N I11-y) (= 5 I11-m) (< 1 I11-d)) (and (= I9-N I11-y) (= 5 I11-m) (= 1 I11-d))) (ite (or (< 5 I11-m) (and (= 5 I11-m) (<= 1 I11-d))) 0 (- 1)) (ite (or (> 5 I11-m) (and (= 5 I11-m) (>= 1 I11-d))) 0 1))) 0) 1)))
(assert (not (< I10-y I9-N)))
(assert (not (> I9-N 2025)))
(assert (not (= I12 0)))
(assert (not (> (* I12 100) (- 1370))))
(assert (not (> (ite (>= (- 1 (div (* I12 55) 10)) 0) (- 1 (div (* I12 55) 10)) (- (- 1 (div (* I12 55) 10)))) 100)))
(assert (not (or (< I30-y I29-y) (and (= I30-y I29-y) (< I30-m I29-m)) (and (= I30-y I29-y) (= I30-m I29-m) (< I30-d I29-d)) (and (= I30-y I29-y) (= I30-m I29-m) (= I30-d I29-d)))))
(assert (not (< I30-y I28-N)))
(assert (not (or (< I30-y I31-y) (and (= I30-y I31-y) (< I30-m I31-m)) (and (= I30-y I31-y) (= I30-m I31-m) (< I30-d I31-d)))))
(assert (not (or (< I30-y (ite B6-F I6-y 0)) (and (= I30-y (ite B6-F I6-y 0)) (< I30-m I7-N)))))
(assert (not (< I31-y 2023)))
(assert (not (distinct I29-y I28-N)))
(assert (not (or (> I29-y (ite B6-F I6-y 0)) (and (= I29-y (ite B6-F I6-y 0)) (> I29-m I7-N)))))
(assert (not (> I28-N 2025)))
(assert (not (or (and (or (< I29-y 2022) (and (= I29-y 2022) (< I29-m 10)) (and (= I29-y 2022) (= I29-m 10) (< I29-d 1))) (< I28-N 2025)) (and (or (> I29-y 2022) (and (= I29-y 2022) (> I29-m 10)) (and (= I29-y 2022) (= I29-m 10) (> I29-d 1)) (and (= I29-y 2022) (= I29-m 10) (= I29-d 1))) (or (and (< I28-N 2025) (= I28-N 2024) (>= I7-N 5) (<= I7-N 12)) (and (< I28-N 2025) (distinct I28-N 2024)))))))
(assert (not (or (and (= I29-y (ite B6-F I6-y 0)) (< I29-m (- I7-N 4))) (and (distinct I29-y (ite B6-F I6-y 0)) (< I29-y (- (ite B6-F I6-y 0) 1))) (and (distinct I29-y (ite B6-F I6-y 0)) (= I29-y (- (ite B6-F I6-y 0) 1)) (> I29-m 8) (< I29-m (- (+ I7-N 12) 4))) (and (distinct I29-y (ite B6-F I6-y 0)) (= I29-y (- (ite B6-F I6-y 0) 1)) (<= I29-m 8)))))
(assert (not (and (distinct I32 0) (= I33 0))))
(assert (not (> (* I33 100) (+ (* I32 15) 100))))
(assert (not (> (ite (>= (- I34 (div (* I33 55) 10)) 0) (- I34 (div (* I33 55) 10)) (- (- I34 (div (* I33 55) 10)))) 100)))
(assert (not (or (and (distinct I36 0) (= I37 0)) (and (distinct I39 0) (= I40 0)))))
(assert (not (> (ite (>= (- I38 (div (* I37 55) 10)) 0) (- I38 (div (* I37 55) 10)) (- (- I38 (div (* I37 55) 10)))) 100)))
(assert (not (or (> (* I37 100) (+ (* I36 15) 100)) (> (* I40 100) (+ (* I39 15) 100)))))
(assert (not (> (ite (>= (- I41 (div (* I40 55) 10)) 0) (- I41 (div (* I40 55) 10)) (- (- I41 (div (* I40 55) 10)))) 100)))
(assert (not (and B43-F (distinct I43 0) (= I44 0))))
(assert (not (and B44-F B45-F (> (ite (>= (- I45 (div (* I44 55) 10)) 0) (- I45 (div (* I44 55) 10)) (- (- I45 (div (* I44 55) 10)))) 100))))
(assert (not (and B44-F (> (* I44 100) (+ (* I43 15) 100)))))
(assert (not (or (> I35-y (ite B6-F I6-y 0)) (and (> I35-m I7-N) (= I35-y (ite B6-F I6-y 0))))))
(assert (not (or (> I15-y I14-y) (and (= I15-y I14-y) (> I15-m I14-m)) (and (= I15-y I14-y) (= I15-m I14-m) (> I15-d I14-d)))))
(assert (not (or (distinct I14-y (ite B6-F I6-y 0)) (distinct I14-m I7-N))))
(assert (not (< I14-y 2025)))
(assert (not (or (= I16 0) (= I18 0))))
(assert (not (> (ite (>= (- I17 (div (* I16 55) 10)) 0) (- I17 (div (* I16 55) 10)) (- (- I17 (div (* I16 55) 10)))) 100)))
(assert (not (or (> (* I16 100) 15000000000085) (> (* I18 100) 85))))
(assert (not (> (ite (>= (- (- 934) (div (* I18 55) 10)) 0) (- (- 934) (div (* I18 55) 10)) (- (- (- 934) (div (* I18 55) 10)))) 100)))
(assert (not (or (> I13-e-y I14-y) (and (= I13-e-y I14-y) (> I13-e-m I14-m)) (and (= I13-e-y I14-y) (= I13-e-m I14-m) (> I13-e-d I14-d)))))
(assert (not (or (< I13-s-y (- I13-e-y 1)) (and (= I13-s-y (- I13-e-y 1)) (< I13-s-m I13-e-m)) (and (= I13-s-y (- I13-e-y 1)) (= I13-s-m I13-e-m) (< I13-s-d (+ I13-e-d 1))))))
(assert (not (or (> I21-y I20-y) (and (= I21-y I20-y) (> I21-m I20-m)) (and (= I21-y I20-y) (= I21-m I20-m) (> I21-d I20-d)))))
(assert (not (or (distinct I20-y (ite B6-F I6-y 0)) (distinct I20-m I7-N))))
(assert (not (< I20-y 2025)))
(assert (not (or (and (distinct I22 0) (= I23 0)) (= I26 0))))
(assert (not (> (ite (>= (- I24 (div (* I23 55) 10)) 0) (- I24 (div (* I23 55) 10)) (- (- I24 (div (* I23 55) 10)))) 100)))
(assert (not (or (> (* I23 100) (+ (* I22 15) 100)) (> (* I26 100) 119699710))))
(assert (not (> (ite (>= (- I25 (- 5499999999995)) 0) (- I25 (- 5499999999995)) (- (- I25 (- 5499999999995)))) 100)))
(assert (not (> (ite (>= (- I27 (div (* I26 55) 10)) 0) (- I27 (div (* I26 55) 10)) (- (- I27 (div (* I26 55) 10)))) 100)))
(assert (not (or (> I19-e-y I20-y) (and (= I19-e-y I20-y) (> I19-e-m I20-m)) (and (= I19-e-y I20-y) (= I19-e-m I20-m) (> I19-e-d I20-d)))))
(assert (not (or (< I19-s-y (- I19-e-y 1)) (and (= I19-s-y (- I19-e-y 1)) (< I19-s-m I19-e-m)) (and (= I19-s-y (- I19-e-y 1)) (= I19-s-m I19-e-m) (< I19-s-d (+ I19-e-d 1))))))
(assert (not B48-F))
(assert (and B6-F B7-F))
(assert (not (and B6-F B7-F (or (< 2026 I6-y) (and (= 2026 I6-y) (<= 6 I7-N))))))
(assert (not (and B6-F B7-F (or (< 2027 I6-y) (and (= 2027 I6-y) (<= 6 I7-N))))))
(assert (not (and B3-F (= I2-N 0))))
(assert (not (and B3-F (= I3-i I1-i))))
(assert (not (and (or B55-F B54-F B52-F B53-F B56-F B57-F B58-F B59-F B60-F B65-F B61-F B63-F B62-F B64-F) (distinct I66 (+ I55 I54 I52 I58 I59 I60 I65 I61 I63 I62 90000000000891)))))
(assert (not (and (not B55-F) (not B54-F) (not B52-F) (not B53-F) (not B56-F) (not B57-F) (not B58-F) (not B59-F) (not B60-F) (not B65-F) (not B61-F) (not B63-F) (not B62-F) (not B64-F))))
(assert (not (distinct I66 (* I46 100))))
(set-info :major-phase |control constraints|)
(push 1)
(assert B6-F)
(set-info :status sat)
(check-sat)
(push 1)
(assert B57-F)
(set-info :status sat)
(check-sat)
(push 1)
(assert B48-F)
(set-info :status unsat)
(check-sat)
(pop 1)
(push 1)
(assert B69-F)
(set-info :status sat)
(check-sat)
(push 1)
(assert B56-F)
(set-info :status sat)
(check-sat)
(push 1)
(assert B71-F)
(set-info :status sat)
(check-sat)
(push 1)
(assert B4-F)
(set-info :status sat)
(check-sat)
(push 1)
(assert B7-F)
(set-info :status sat)
(check-sat)
(push 1)
(assert B72-F)
(set-info :status sat)
(check-sat)
(push 1)
(assert B5-F)
(set-info :status sat)
(check-sat)
(push 1)
(assert B64-F)
(set-info :status sat)
(check-sat)
(push 1)
(assert B3-F)
(set-info :status sat)
(check-sat)
(push 1)
(assert B8-F)
(set-info :status sat)
(check-sat)
(push 1)
(assert B51-F)
(set-info :status unsat)
(check-sat)
(pop 1)
(push 1)
(assert B70-F)
(set-info :status sat)
(check-sat)
(push 1)
(assert B62-F)
(set-info :status sat)
(check-sat)
(push 1)
(assert B45-F)
(set-info :status sat)
(check-sat)
(push 1)
(assert B52-F)
(set-info :status sat)
(check-sat)
(push 1)
(assert B53-F)
(set-info :status sat)
(check-sat)
(push 1)
(assert B44-F)
(set-info :status sat)
(check-sat)
(push 1)
(assert B50-F)
(set-info :status unsat)
(check-sat)
(pop 1)
(push 1)
(assert B63-F)
(set-info :status sat)
(check-sat)
(push 1)
(assert B60-F)
(set-info :status sat)
(check-sat)
(push 1)
(assert B65-F)
(set-info :status sat)
(check-sat)
(push 1)
(assert B59-F)
(set-info :status sat)
(check-sat)
(push 1)
(assert B55-F)
(set-info :status sat)
(check-sat)
(push 1)
(assert B54-F)
(set-info :status sat)
(check-sat)
(push 1)
(assert B58-F)
(set-info :status sat)
(check-sat)
(push 1)
(assert B43-F)
(set-info :status sat)
(check-sat)
(push 1)
(assert B61-F)
(set-info :status sat)
(check-sat)
(push 1)
(assert B68-F)
(set-info :status sat)
(check-sat)
(exit)

